46
1 0 2
2 0 3
2 1 3
3 0 3
3 1 12
3 2 1
4 0 3
4 1 12
4 2 18
4 3 3
5 0 14
5 1 9
5 2 11
5 3 17
5 4 17
6 0 3
6 1 11
6 2 10
6 3 16
6 4 8
6 5 4
7 0 12
7 1 18
7 2 17
7 3 6
7 4 12
7 5 11
7 6 1
8 0 18
8 1 13
8 2 12
8 3 5
8 4 19
8 5 1
8 6 19
8 7 16
9 0 9
9 1 4
9 2 6
9 3 11
9 4 1
9 5 14
9 6 5
9 7 13
9 8 17
10 0 15
10 1 1
10 2 2
10 3 6
10 4 12
10 5 5
10 6 1
10 7 2
10 8 19
10 9 6
11 0 20
11 1 11
11 2 8
11 3 14
11 4 10
11 5 20
11 6 8
11 7 17
11 8 13
11 9 3
11 10 8
12 0 1
12 1 16
12 2 2
12 3 1
12 4 10
12 5 17
12 6 2
12 7 19
12 8 3
12 9 19
12 10 16
12 11 13
13 0 14
13 1 7
13 2 4
13 3 8
13 4 17
13 5 12
13 6 19
13 7 14
13 8 14
13 9 19
13 10 20
13 11 14
13 12 19
14 0 3
14 1 10
14 2 12
14 3 1
14 4 9
14 5 4
14 6 14
14 7 4
14 8 1
14 9 7
14 10 20
14 11 11
14 12 18
14 13 9
15 0 7
15 1 8
15 2 16
15 3 6
15 4 9
15 5 3
15 6 6
15 7 8
15 8 4
15 9 8
15 10 8
15 11 14
15 12 10
15 13 16
15 14 10
16 0 17
16 1 20
16 2 12
16 3 4
16 4 15
16 5 19
16 6 2
16 7 1
16 8 13
16 9 17
16 10 2
16 11 7
16 12 9
16 13 6
16 14 11
16 15 12
17 0 11
17 1 20
17 2 5
17 3 17
17 4 6
17 5 17
17 6 5
17 7 13
17 8 7
17 9 6
17 10 6
17 11 14
17 12 20
17 13 9
17 14 14
17 15 1
17 16 11
18 0 15
18 1 17
18 2 20
18 3 9
18 4 5
18 5 1
18 6 2
18 7 8
18 8 3
18 9 15
18 10 6
18 11 12
18 12 4
18 13 16
18 14 4
18 15 11
18 16 14
18 17 18
19 0 7
19 1 8
19 2 3
19 3 14
19 4 15
19 5 4
19 6 16
19 7 5
19 8 12
19 9 16
19 10 1
19 11 3
19 12 7
19 13 10
19 14 15
19 15 13
19 16 7
19 17 1
19 18 11
20 0 13
20 1 20
20 2 9
20 3 6
20 4 7
20 5 9
20 6 11
20 7 15
20 8 20
20 9 13
20 10 16
20 11 16
20 12 17
20 13 14
20 14 3
20 15 8
20 16 13
20 17 7
20 18 10
20 19 16
21 0 11
21 1 3
21 2 12
21 3 7
21 4 5
21 5 18
21 6 10
21 7 17
21 8 20
21 9 12
21 10 10
21 11 2
21 12 15
21 13 10
21 14 10
21 15 11
21 16 8
21 17 7
21 18 19
21 19 20
21 20 20
22 0 6
22 1 5
22 2 11
22 3 10
22 4 19
22 5 17
22 6 5
22 7 2
22 8 18
22 9 10
22 10 6
22 11 19
22 12 4
22 13 8
22 14 14
22 15 17
22 16 13
22 17 8
22 18 4
22 19 10
22 20 8
22 21 12
23 0 8
23 1 1
23 2 3
23 3 2
23 4 12
23 5 12
23 6 9
23 7 20
23 8 2
23 9 3
23 10 6
23 11 2
23 12 17
23 13 12
23 14 12
23 15 20
23 16 6
23 17 13
23 18 7
23 19 18
23 20 10
23 21 18
23 22 17
24 0 17
24 1 2
24 2 7
24 3 4
24 4 10
24 5 7
24 6 20
24 7 19
24 8 11
24 9 4
24 10 7
24 11 19
24 12 13
24 13 12
24 14 20
24 15 3
24 16 20
24 17 2
24 18 1
24 19 4
24 20 7
24 21 7
24 22 18
24 23 10
25 0 13
25 1 14
25 2 17
25 3 8
25 4 5
25 5 8
25 6 2
25 7 19
25 8 20
25 9 1
25 10 18
25 11 15
25 12 20
25 13 18
25 14 1
25 15 19
25 16 10
25 17 11
25 18 6
25 19 13
25 20 11
25 21 9
25 22 20
25 23 19
25 24 18
26 0 5
26 1 18
26 2 8
26 3 5
26 4 13
26 5 14
26 6 4
26 7 5
26 8 13
26 9 17
26 10 6
26 11 12
26 12 6
26 13 6
26 14 11
26 15 14
26 16 14
26 17 2
26 18 4
26 19 18
26 20 19
26 21 10
26 22 15
26 23 5
26 24 16
26 25 19
27 0 13
27 1 19
27 2 8
27 3 10
27 4 9
27 5 14
27 6 14
27 7 3
27 8 17
27 9 20
27 10 20
27 11 4
27 12 16
27 13 18
27 14 2
27 15 16
27 16 2
27 17 16
27 18 8
27 19 11
27 20 15
27 21 6
27 22 13
27 23 11
27 24 5
27 25 2
27 26 20
28 0 18
28 1 4
28 2 9
28 3 16
28 4 2
28 5 19
28 6 6
28 7 10
28 8 11
28 9 5
28 10 2
28 11 19
28 12 17
28 13 6
28 14 18
28 15 15
28 16 4
28 17 18
28 18 2
28 19 16
28 20 12
28 21 9
28 22 8
28 23 4
28 24 15
28 25 15
28 26 20
28 27 7
29 0 6
29 1 3
29 2 3
29 3 15
29 4 2
29 5 14
29 6 8
29 7 13
29 8 17
29 9 11
29 10 14
29 11 7
29 12 18
29 13 2
29 14 19
29 15 10
29 16 10
29 17 5
29 18 9
29 19 20
29 20 11
29 21 17
29 22 1
29 23 11
29 24 2
29 25 17
29 26 15
29 27 6
29 28 8
30 0 17
30 1 10
30 2 14
30 3 10
30 4 2
30 5 16
30 6 10
30 7 17
30 8 8
30 9 10
30 10 19
30 11 7
30 12 19
30 13 10
30 14 7
30 15 11
30 16 18
30 17 18
30 18 1
30 19 4
30 20 18
30 21 5
30 22 17
30 23 15
30 24 11
30 25 8
30 26 20
30 27 20
30 28 12
30 29 18
31 0 10
31 1 19
31 2 12
31 3 8
31 4 10
31 5 16
31 6 18
31 7 10
31 8 20
31 9 5
31 10 2
31 11 15
31 12 15
31 13 3
31 14 14
31 15 20
31 16 9
31 17 4
31 18 15
31 19 15
31 20 12
31 21 11
31 22 8
31 23 2
31 24 8
31 25 7
31 26 13
31 27 14
31 28 18
31 29 1
31 30 16
32 0 19
32 1 16
32 2 5
32 3 12
32 4 19
32 5 3
32 6 18
32 7 9
32 8 16
32 9 8
32 10 7
32 11 7
32 12 6
32 13 12
32 14 15
32 15 19
32 16 15
32 17 10
32 18 20
32 19 20
32 20 5
32 21 7
32 22 16
32 23 12
32 24 3
32 25 14
32 26 14
32 27 12
32 28 16
32 29 17
32 30 18
32 31 8
33 0 12
33 1 11
33 2 8
33 3 18
33 4 8
33 5 18
33 6 4
33 7 4
33 8 3
33 9 7
33 10 10
33 11 7
33 12 19
33 13 12
33 14 3
33 15 18
33 16 3
33 17 1
33 18 14
33 19 3
33 20 6
33 21 15
33 22 16
33 23 7
33 24 12
33 25 16
33 26 5
33 27 8
33 28 13
33 29 12
33 30 6
33 31 4
33 32 13
34 0 6
34 1 18
34 2 12
34 3 12
34 4 14
34 5 4
34 6 15
34 7 3
34 8 4
34 9 2
34 10 3
34 11 17
34 12 5
34 13 7
34 14 12
34 15 3
34 16 9
34 17 10
34 18 2
34 19 15
34 20 12
34 21 2
34 22 7
34 23 3
34 24 19
34 25 5
34 26 2
34 27 13
34 28 18
34 29 19
34 30 19
34 31 12
34 32 19
34 33 9
35 0 5
35 1 9
35 2 8
35 3 1
35 4 9
35 5 5
35 6 14
35 7 3
35 8 10
35 9 15
35 10 18
35 11 20
35 12 19
35 13 10
35 14 18
35 15 10
35 16 19
35 17 17
35 18 1
35 19 18
35 20 3
35 21 13
35 22 8
35 23 1
35 24 7
35 25 2
35 26 13
35 27 15
35 28 8
35 29 5
35 30 16
35 31 9
35 32 13
35 33 11
35 34 15
36 0 4
36 1 15
36 2 5
36 3 8
36 4 10
36 5 3
36 6 14
36 7 5
36 8 15
36 9 19
36 10 9
36 11 10
36 12 3
36 13 5
36 14 12
36 15 12
36 16 5
36 17 10
36 18 9
36 19 10
36 20 1
36 21 15
36 22 19
36 23 17
36 24 10
36 25 4
36 26 19
36 27 10
36 28 7
36 29 19
36 30 14
36 31 6
36 32 15
36 33 19
36 34 16
36 35 7
37 0 12
37 1 11
37 2 14
37 3 17
37 4 19
37 5 11
37 6 7
37 7 5
37 8 18
37 9 16
37 10 13
37 11 3
37 12 14
37 13 19
37 14 3
37 15 17
37 16 15
37 17 15
37 18 4
37 19 15
37 20 9
37 21 19
37 22 10
37 23 2
37 24 8
37 25 15
37 26 7
37 27 11
37 28 3
37 29 9
37 30 20
37 31 6
37 32 2
37 33 2
37 34 18
37 35 17
37 36 1
38 0 12
38 1 18
38 2 20
38 3 13
38 4 18
38 5 11
38 6 2
38 7 18
38 8 3
38 9 19
38 10 4
38 11 12
38 12 14
38 13 11
38 14 12
38 15 14
38 16 10
38 17 8
38 18 2
38 19 20
38 20 1
38 21 5
38 22 19
38 23 13
38 24 14
38 25 16
38 26 16
38 27 4
38 28 4
38 29 10
38 30 1
38 31 4
38 32 3
38 33 1
38 34 14
38 35 6
38 36 5
38 37 6
39 0 5
39 1 1
39 2 16
39 3 6
39 4 9
39 5 9
39 6 20
39 7 13
39 8 3
39 9 17
39 10 12
39 11 10
39 12 11
39 13 10
39 14 4
39 15 18
39 16 20
39 17 15
39 18 3
39 19 13
39 20 19
39 21 3
39 22 3
39 23 19
39 24 1
39 25 17
39 26 6
39 27 6
39 28 5
39 29 6
39 30 1
39 31 19
39 32 19
39 33 10
39 34 15
39 35 4
39 36 19
39 37 1
39 38 17
40 0 19
40 1 3
40 2 10
40 3 2
40 4 11
40 5 19
40 6 7
40 7 3
40 8 1
40 9 1
40 10 18
40 11 9
40 12 1
40 13 17
40 14 2
40 15 3
40 16 15
40 17 6
40 18 1
40 19 6
40 20 2
40 21 9
40 22 3
40 23 17
40 24 4
40 25 20
40 26 2
40 27 18
40 28 4
40 29 2
40 30 13
40 31 12
40 32 1
40 33 15
40 34 13
40 35 2
40 36 12
40 37 6
40 38 18
40 39 7
41 0 8
41 1 14
41 2 18
41 3 7
41 4 19
41 5 5
41 6 4
41 7 12
41 8 16
41 9 18
41 10 6
41 11 9
41 12 17
41 13 6
41 14 19
41 15 20
41 16 16
41 17 16
41 18 20
41 19 7
41 20 8
41 21 15
41 22 7
41 23 12
41 24 8
41 25 9
41 26 9
41 27 16
41 28 14
41 29 5
41 30 18
41 31 16
41 32 18
41 33 11
41 34 11
41 35 16
41 36 7
41 37 15
41 38 11
41 39 17
41 40 1
42 0 18
42 1 14
42 2 6
42 3 19
42 4 17
42 5 18
42 6 3
42 7 2
42 8 9
42 9 20
42 10 8
42 11 7
42 12 2
42 13 17
42 14 4
42 15 10
42 16 2
42 17 13
42 18 10
42 19 8
42 20 1
42 21 20
42 22 19
42 23 10
42 24 4
42 25 1
42 26 19
42 27 19
42 28 16
42 29 6
42 30 6
42 31 18
42 32 4
42 33 19
42 34 13
42 35 11
42 36 7
42 37 19
42 38 14
42 39 14
42 40 10
42 41 2
43 0 10
43 1 8
43 2 13
43 3 18
43 4 18
43 5 17
43 6 17
43 7 1
43 8 19
43 9 2
43 10 11
43 11 4
43 12 1
43 13 8
43 14 10
43 15 13
43 16 2
43 17 9
43 18 17
43 19 13
43 20 11
43 21 19
43 22 10
43 23 9
43 24 9
43 25 1
43 26 20
43 27 3
43 28 12
43 29 15
43 30 6
43 31 2
43 32 9
43 33 6
43 34 8
43 35 17
43 36 7
43 37 4
43 38 6
43 39 2
43 40 18
43 41 16
43 42 7
44 0 11
44 1 16
44 2 1
44 3 11
44 4 20
44 5 20
44 6 4
44 7 3
44 8 19
44 9 5
44 10 4
44 11 12
44 12 2
44 13 1
44 14 14
44 15 7
44 16 7
44 17 9
44 18 16
44 19 15
44 20 1
44 21 5
44 22 15
44 23 14
44 24 2
44 25 7
44 26 2
44 27 11
44 28 8
44 29 13
44 30 12
44 31 11
44 32 11
44 33 15
44 34 2
44 35 9
44 36 18
44 37 10
44 38 17
44 39 20
44 40 10
44 41 8
44 42 19
44 43 3
45 0 12
45 1 18
45 2 19
45 3 3
45 4 11
45 5 12
45 6 20
45 7 13
45 8 17
45 9 5
45 10 17
45 11 10
45 12 14
45 13 17
45 14 11
45 15 2
45 16 8
45 17 13
45 18 1
45 19 5
45 20 13
45 21 1
45 22 8
45 23 14
45 24 16
45 25 17
45 26 13
45 27 12
45 28 1
45 29 20
45 30 2
45 31 15
45 32 5
45 33 1
45 34 5
45 35 7
45 36 13
45 37 20
45 38 18
45 39 6
45 40 15
45 41 4
45 42 13
45 43 3
45 44 17
